* SCIP STATISTICS
*   Problem name     : ex1266.zpl
*   Variables        : 181 (138 binary, 0 integer, 0 implicit integer, 43 continuous)
*   Constraints      : 96
*   Obj. scale       : 1
*   Obj. offset      : 0
NAME          ex1266.zpl
ROWS
 N  Obj 
 E  c0 
 G  c1 
 G  c2 
 G  c3 
 G  c4 
 G  c5 
 G  c6 
 L  c7 
 L  c8 
 L  c9 
 L  c10 
 L  c11 
 L  c12 
 L  c13 
 L  c14 
 L  c15 
 L  c16 
 L  c17 
 L  c18 
 L  c19 
 L  c20 
 L  c21 
 L  c22 
 L  c23 
 L  c24 
 L  c25 
 L  c26 
 L  c27 
 L  c28 
 L  c29 
 L  c30 
 L  c31 
 L  c32 
 L  c33 
 L  c34 
 L  c35 
 L  c36 
 L  c37 
 L  c38 
 L  c39 
 L  c40 
 L  c41 
 L  c42 
 G  c43 
 L  c44 
 L  c45 
 L  c46 
 L  c47 
 L  c48 
 L  c49 
 L  c50 
 L  c51 
 L  c52 
 L  c53 
 E  c54 
 E  c55 
 E  c56 
 E  c57 
 E  c58 
 E  c59 
 E  c60 
 E  c61 
 E  c62 
 E  c63 
 E  c64 
 E  c65 
 E  c66 
 E  c67 
 E  c68 
 E  c69 
 E  c70 
 E  c71 
 E  c72 
 E  c73 
 E  c74 
 E  c75 
 E  c76 
 E  c77 
 E  c78 
 E  c79 
 E  c80 
 E  c81 
 E  c82 
 E  c83 
 E  c84 
 E  c85 
 E  c86 
 E  c87 
 E  c88 
 E  c89 
 E  c90 
 E  c91 
 E  c92 
 E  c93 
 E  c94 
 E  c95 
COLUMNS
    x144      c7                            -330  c19                             -1 
    x144      c25                              1  c13                            330 
    x144      c54                              1 
    x145      c8                            -330  c20                             -1 
    x145      c14                            330  c55                              1 
    x145      c26                              1 
    x146      c9                            -330  c15                            330 
    x146      c56                              1  c21                             -1 
    x146      c27                              1 
    x147      c28                              1  c57                              1 
    x147      c10                           -330  c22                             -1 
    x147      c16                            330 
    x148      c11                           -330  c17                            330 
    x148      c23                             -1  c29                              1 
    x148      c58                              1 
    x149      c12                           -330  c59                              1 
    x149      c18                            330  c30                              1 
    x149      c24                             -1 
    x156      c13                            360  c60                              1 
    x156      c19                             -1  c25                              1 
    x156      c7                            -360 
    x157      c61                              1  c14                            360 
    x157      c8                            -360  c26                              1 
    x157      c20                             -1 
    x158      c9                            -360  c21                             -1 
    x158      c15                            360  c62                              1 
    x158      c27                              1 
    x159      c63                              1  c22                             -1 
    x159      c10                           -360  c16                            360 
    x159      c28                              1 
    x160      c11                           -360  c29                              1 
    x160      c17                            360  c23                             -1 
    x160      c64                              1 
    x161      c12                           -360  c65                              1 
    x161      c18                            360  c24                             -1 
    x161      c30                              1 
    x162      c66                              1  c19                             -1 
    x162      c25                              1  c7                            -380 
    x162      c13                            380 
    x163      c8                            -380  c26                              1 
    x163      c20                             -1  c67                              1 
    x163      c14                            380 
    x164      c9                            -380  c15                            380 
    x164      c68                              1  c21                             -1 
    x164      c27                              1 
    x165      c28                              1  c22                             -1 
    x165      c69                              1  c10                           -380 
    x165      c16                            380 
    x166      c70                              1  c17                            380 
    x166      c23                             -1  c11                           -380 
    x166      c29                              1 
    x167      c12                           -380  c18                            380 
    x167      c71                              1  c24                             -1 
    x167      c30                              1 
    x168      c25                              1  c13                            430 
    x168      c7                            -430  c19                             -1 
    x168      c72                              1 
    x169      c14                            430  c73                              1 
    x169      c26                              1  c8                            -430 
    x169      c20                             -1 
    x170      c27                              1  c21                             -1 
    x170      c74                              1  c9                            -430 
    x170      c15                            430 
    x171      c22                             -1  c28                              1 
    x171      c75                              1  c16                            430 
    x171      c10                           -430 
    x172      c76                              1  c29                              1 
    x172      c11                           -430  c23                             -1 
    x172      c17                            430 
    x173      c30                              1  c12                           -430 
    x173      c77                              1  c18                            430 
    x173      c24                             -1 
    x174      c19                             -1  c25                              1 
    x174      c13                            490  c7                            -490 
    x174      c78                              1 
    x175      c20                             -1  c26                              1 
    x175      c79                              1  c14                            490 
    x175      c8                            -490 
    x176      c9                            -490  c80                              1 
    x176      c21                             -1  c27                              1 
    x176      c15                            490 
    x177      c10                           -490  c81                              1 
    x177      c22                             -1  c28                              1 
    x177      c16                            490 
    x178      c23                             -1  c29                              1 
    x178      c11                           -490  c82                              1 
    x178      c17                            490 
    x179      c12                           -490  c24                             -1 
    x179      c18                            490  c83                              1 
    x179      c30                              1 
    x138      c25                              1  c19                             -1 
    x138      c7                            -530  c84                              1 
    x138      c13                            530 
    x139      c85                              1  c20                             -1 
    x139      c26                              1  c14                            530 
    x139      c8                            -530 
    x140      c86                              1  c9                            -530 
    x140      c27                              1  c15                            530 
    x140      c21                             -1 
    x141      c16                            530  c28                              1 
    x141      c22                             -1  c87                              1 
    x141      c10                           -530 
    x142      c23                             -1  c11                           -530 
    x142      c88                              1  c17                            530 
    x142      c29                              1 
    x143      c24                             -1  c12                           -530 
    x143      c89                              1  c18                            530 
    x143      c30                              1 
    INTSTART  'MARKER'                            'INTORG'                           
    x0        c54                             -1 
    x1        c54                             -2 
    x2        c54                             -4 
    x3        c55                             -1 
    x4        c55                             -2 
    x5        c55                             -4 
    x6        c56                             -1 
    x7        c56                             -2 
    x8        c56                             -4 
    x9        c57                             -1 
    x10       c57                             -2 
    x11       c57                             -4 
    x12       c58                             -1 
    x13       c58                             -2 
    x14       c58                             -4 
    x15       c59                             -1 
    x16       c59                             -2 
    x17       c59                             -4 
    x18       c60                             -1 
    x19       c60                             -2 
    x20       c60                             -4 
    x21       c61                             -1 
    x22       c61                             -2 
    x23       c61                             -4 
    x24       c62                             -1 
    x25       c62                             -2 
    x26       c62                             -4 
    x27       c63                             -1 
    x28       c63                             -2 
    x29       c63                             -4 
    x30       c64                             -1 
    x31       c64                             -2 
    x32       c64                             -4 
    x33       c65                             -1 
    x34       c65                             -2 
    x35       c65                             -4 
    x36       c66                             -1 
    x37       c66                             -2 
    x38       c66                             -4 
    x39       c67                             -1 
    x40       c67                             -2 
    x41       c67                             -4 
    x42       c68                             -1 
    x43       c68                             -2 
    x44       c68                             -4 
    x45       c69                             -1 
    x46       c69                             -2 
    x47       c69                             -4 
    x48       c70                             -1 
    x49       c70                             -2 
    x50       c70                             -4 
    x51       c71                             -1 
    x52       c71                             -2 
    x53       c71                             -4 
    x54       c72                             -1 
    x55       c72                             -2 
    x56       c72                             -4 
    x57       c73                             -1 
    x58       c73                             -2 
    x59       c73                             -4 
    x60       c74                             -1 
    x61       c74                             -2 
    x62       c74                             -4 
    x63       c75                             -1 
    x64       c75                             -2 
    x65       c75                             -4 
    x66       c76                             -1 
    x67       c76                             -2 
    x68       c76                             -4 
    x69       c77                             -1 
    x70       c77                             -2 
    x71       c77                             -4 
    x72       c78                             -1 
    x73       c78                             -2 
    x74       c78                             -4 
    x75       c79                             -1 
    x76       c79                             -2 
    x77       c79                             -4 
    x78       c80                             -1 
    x79       c80                             -2 
    x80       c80                             -4 
    x81       c81                             -1 
    x82       c81                             -2 
    x83       c81                             -4 
    x84       c82                             -1 
    x85       c82                             -2 
    x86       c82                             -4 
    x87       c83                             -1 
    x88       c83                             -2 
    x89       c83                             -4 
    x90       c84                             -1 
    x91       c84                             -2 
    x92       c84                             -4 
    x93       c85                             -1 
    x94       c85                             -2 
    x95       c85                             -4 
    x96       c86                             -1 
    x97       c86                             -2 
    x98       c86                             -4 
    x99       c87                             -1 
    x100      c87                             -2 
    x101      c87                             -4 
    x102      c88                             -1 
    x103      c88                             -2 
    x104      c88                             -4 
    x105      c89                             -1 
    x106      c89                             -2 
    x107      c89                             -4 
    x108      c19                              1  c7                            2100 
    x108      c37                            -15  c31                              1 
    x108      c0                            -0.1  c25                             -5 
    x108      c44                             -1  c13                          -2200 
    x109      c32                              1  c20                              1 
    x109      c45                             -1  c38                            -12 
    x109      c44                              1  c8                            2100 
    x109      c26                             -5  c0                            -0.2 
    x109      c14                          -2200 
    x110      c0                            -0.3  c15                          -2200 
    x110      c9                            2100  c21                              1 
    x110      c45                              1  c39                             -8 
    x110      c46                             -1  c33                              1 
    x110      c27                             -5 
    x111      c22                              1  c16                          -2200 
    x111      c0                            -0.4  c10                           2100 
    x111      c40                             -7  c28                             -5 
    x111      c47                             -1  c46                              1 
    x111      c34                              1 
    x112      c41                             -4  c17                          -2200 
    x112      c35                              1  c0                            -0.5 
    x112      c47                              1  c11                           2100 
    x112      c48                             -1  c29                             -5 
    x112      c23                              1 
    x113      c48                              1  c18                          -2200 
    x113      c24                              1  c36                              1 
    x113      c42                             -2  c30                             -5 
    x113      c12                           2100 
    INTEND    'MARKER'                            'INTEND'                           
    x150      c49                             -1  c90                              1 
    x150      c37                              1  c0                              -1 
    x150      c43                              1  c31                             -1 
    x151      c43                              1  c32                             -1 
    x151      c0                              -1  c49                              1 
    x151      c50                             -1  c38                              1 
    x151      c91                              1 
    x152      c51                             -1  c50                              1 
    x152      c0                              -1  c43                              1 
    x152      c33                             -1  c92                              1 
    x152      c39                              1 
    x153      c0                              -1  c52                             -1 
    x153      c51                              1  c93                              1 
    x153      c43                              1  c34                             -1 
    x153      c40                              1 
    x154      c94                              1  c35                             -1 
    x154      c41                              1  c43                              1 
    x154      c52                              1  c53                             -1 
    x154      c0                              -1 
    x155      c0                              -1  c95                              1 
    x155      c53                              1  c43                              1 
    x155      c36                             -1  c42                              1 
    INTSTART  'MARKER'                            'INTORG'                           
    x114      c90                             -1 
    x115      c90                             -2 
    x116      c90                             -4 
    x117      c90                             -8 
    x118      c91                             -1 
    x119      c91                             -2 
    x120      c91                             -4 
    x121      c91                             -8 
    x122      c92                             -1 
    x123      c92                             -2 
    x124      c92                             -4 
    x125      c92                             -8 
    x126      c93                             -1 
    x127      c93                             -2 
    x128      c93                             -4 
    x129      c93                             -8 
    x130      c94                             -1 
    x131      c94                             -2 
    x132      c94                             -4 
    x133      c94                             -8 
    x134      c95                             -1 
    x135      c95                             -2 
    x136      c95                             -4 
    x137      c95                             -8 
    INTEND    'MARKER'                            'INTEND'                           
    x180      Obj                              1  c0                               1 
RHS
    RHS       c1                               8  c2                              16 
    RHS       c3                              12  c4                               7 
    RHS       c5                              14  c6                              16 
    RHS       c43                             16 
BOUNDS
 BV Bound     x0                                 
 BV Bound     x1                                 
 BV Bound     x2                                 
 BV Bound     x3                                 
 BV Bound     x4                                 
 BV Bound     x5                                 
 BV Bound     x6                                 
 BV Bound     x7                                 
 BV Bound     x8                                 
 BV Bound     x9                                 
 BV Bound     x10                                
 BV Bound     x11                                
 BV Bound     x12                                
 BV Bound     x13                                
 BV Bound     x14                                
 BV Bound     x15                                
 BV Bound     x16                                
 BV Bound     x17                                
 BV Bound     x18                                
 BV Bound     x19                                
 BV Bound     x20                                
 BV Bound     x21                                
 BV Bound     x22                                
 BV Bound     x23                                
 BV Bound     x24                                
 BV Bound     x25                                
 BV Bound     x26                                
 BV Bound     x27                                
 BV Bound     x28                                
 BV Bound     x29                                
 BV Bound     x30                                
 BV Bound     x31                                
 BV Bound     x32                                
 BV Bound     x33                                
 BV Bound     x34                                
 BV Bound     x35                                
 BV Bound     x36                                
 BV Bound     x37                                
 BV Bound     x38                                
 BV Bound     x39                                
 BV Bound     x40                                
 BV Bound     x41                                
 BV Bound     x42                                
 BV Bound     x43                                
 BV Bound     x44                                
 BV Bound     x45                                
 BV Bound     x46                                
 BV Bound     x47                                
 BV Bound     x48                                
 BV Bound     x49                                
 BV Bound     x50                                
 BV Bound     x51                                
 BV Bound     x52                                
 BV Bound     x53                                
 BV Bound     x54                                
 BV Bound     x55                                
 BV Bound     x56                                
 BV Bound     x57                                
 BV Bound     x58                                
 BV Bound     x59                                
 BV Bound     x60                                
 BV Bound     x61                                
 BV Bound     x62                                
 BV Bound     x63                                
 BV Bound     x64                                
 BV Bound     x65                                
 BV Bound     x66                                
 BV Bound     x67                                
 BV Bound     x68                                
 BV Bound     x69                                
 BV Bound     x70                                
 BV Bound     x71                                
 BV Bound     x72                                
 BV Bound     x73                                
 BV Bound     x74                                
 BV Bound     x75                                
 BV Bound     x76                                
 BV Bound     x77                                
 BV Bound     x78                                
 BV Bound     x79                                
 BV Bound     x80                                
 BV Bound     x81                                
 BV Bound     x82                                
 BV Bound     x83                                
 BV Bound     x84                                
 BV Bound     x85                                
 BV Bound     x86                                
 BV Bound     x87                                
 BV Bound     x88                                
 BV Bound     x89                                
 BV Bound     x90                                
 BV Bound     x91                                
 BV Bound     x92                                
 BV Bound     x93                                
 BV Bound     x94                                
 BV Bound     x95                                
 BV Bound     x96                                
 BV Bound     x97                                
 BV Bound     x98                                
 BV Bound     x99                                
 BV Bound     x100                               
 BV Bound     x101                               
 BV Bound     x102                               
 BV Bound     x103                               
 BV Bound     x104                               
 BV Bound     x105                               
 BV Bound     x106                               
 BV Bound     x107                               
 BV Bound     x108                               
 BV Bound     x109                               
 BV Bound     x110                               
 BV Bound     x111                               
 BV Bound     x112                               
 BV Bound     x113                               
 BV Bound     x114                               
 BV Bound     x115                               
 BV Bound     x116                               
 BV Bound     x117                               
 BV Bound     x118                               
 BV Bound     x119                               
 BV Bound     x120                               
 BV Bound     x121                               
 BV Bound     x122                               
 BV Bound     x123                               
 BV Bound     x124                               
 BV Bound     x125                               
 BV Bound     x126                               
 BV Bound     x127                               
 BV Bound     x128                               
 BV Bound     x129                               
 BV Bound     x130                               
 BV Bound     x131                               
 BV Bound     x132                               
 BV Bound     x133                               
 BV Bound     x134                               
 BV Bound     x135                               
 BV Bound     x136                               
 BV Bound     x137                               
 UP Bound     x138                             5 
 UP Bound     x139                             5 
 UP Bound     x140                             5 
 UP Bound     x141                             5 
 UP Bound     x142                             5 
 UP Bound     x143                             5 
 UP Bound     x144                             5 
 UP Bound     x145                             5 
 UP Bound     x146                             5 
 UP Bound     x147                             5 
 UP Bound     x148                             5 
 UP Bound     x149                             5 
 UP Bound     x150                            15 
 UP Bound     x151                            12 
 UP Bound     x152                             8 
 UP Bound     x153                             7 
 UP Bound     x154                             4 
 UP Bound     x155                             2 
 UP Bound     x156                             5 
 UP Bound     x157                             5 
 UP Bound     x158                             5 
 UP Bound     x159                             5 
 UP Bound     x160                             5 
 UP Bound     x161                             5 
 UP Bound     x162                             5 
 UP Bound     x163                             5 
 UP Bound     x164                             5 
 UP Bound     x165                             5 
 UP Bound     x166                             5 
 UP Bound     x167                             5 
 UP Bound     x168                             5 
 UP Bound     x169                             5 
 UP Bound     x170                             5 
 UP Bound     x171                             5 
 UP Bound     x172                             5 
 UP Bound     x173                             5 
 UP Bound     x174                             5 
 UP Bound     x175                             5 
 UP Bound     x176                             5 
 UP Bound     x177                             5 
 UP Bound     x178                             5 
 UP Bound     x179                             5 
 FR Bound     x180                               
QCMATRIX c1
    x150      x144                           0.5 
    x144      x150                           0.5 
    x151      x145                           0.5 
    x145      x151                           0.5 
    x152      x146                           0.5 
    x146      x152                           0.5 
    x153      x147                           0.5 
    x147      x153                           0.5 
    x154      x148                           0.5 
    x148      x154                           0.5 
    x155      x149                           0.5 
    x149      x155                           0.5 
QCMATRIX c2
    x150      x156                           0.5 
    x156      x150                           0.5 
    x151      x157                           0.5 
    x157      x151                           0.5 
    x152      x158                           0.5 
    x158      x152                           0.5 
    x153      x159                           0.5 
    x159      x153                           0.5 
    x154      x160                           0.5 
    x160      x154                           0.5 
    x155      x161                           0.5 
    x161      x155                           0.5 
QCMATRIX c3
    x150      x162                           0.5 
    x162      x150                           0.5 
    x151      x163                           0.5 
    x163      x151                           0.5 
    x152      x164                           0.5 
    x164      x152                           0.5 
    x153      x165                           0.5 
    x165      x153                           0.5 
    x154      x166                           0.5 
    x166      x154                           0.5 
    x155      x167                           0.5 
    x167      x155                           0.5 
QCMATRIX c4
    x150      x168                           0.5 
    x168      x150                           0.5 
    x151      x169                           0.5 
    x169      x151                           0.5 
    x152      x170                           0.5 
    x170      x152                           0.5 
    x153      x171                           0.5 
    x171      x153                           0.5 
    x154      x172                           0.5 
    x172      x154                           0.5 
    x155      x173                           0.5 
    x173      x155                           0.5 
QCMATRIX c5
    x150      x174                           0.5 
    x174      x150                           0.5 
    x151      x175                           0.5 
    x175      x151                           0.5 
    x152      x176                           0.5 
    x176      x152                           0.5 
    x153      x177                           0.5 
    x177      x153                           0.5 
    x154      x178                           0.5 
    x178      x154                           0.5 
    x155      x179                           0.5 
    x179      x155                           0.5 
QCMATRIX c6
    x150      x138                           0.5 
    x138      x150                           0.5 
    x151      x139                           0.5 
    x139      x151                           0.5 
    x152      x140                           0.5 
    x140      x152                           0.5 
    x153      x141                           0.5 
    x141      x153                           0.5 
    x154      x142                           0.5 
    x142      x154                           0.5 
    x155      x143                           0.5 
    x143      x155                           0.5 
ENDATA